
Value of objective function: -107.623

Actual values of the variables:
x0                        19.8405
x1                              0
x2                        9.92024
x3                        9.92024
x4                        9.92024
x5                        9.92024
x6                              0
x7                              0
x8                              0
x9                        44.7103
x10                       34.8436
x11                       22.7354
x12                       20.1909
x13                             0
x14                             0
x15                             0
x16                             0
x17                             0
x18                             0
VaR                       45.5676
z0                              0
z1                              0
z2                        15.6156
z3                              0
z4                        1.04489
z5                              0
z6                              0
z7                              0
z8                              0
z9                         11.802
z10                             0
z11                       6.34889
z12                       11.5632
z13                             0
z14                       20.6359
z15                             0
z16                             0
z17                             0
z18                             0
z19                             0
z20                             0
z21                             0
z22                       10.0804
z23                             0
z24                             0
z25                             0
z26                             0
z27                             0
z28                             0
z29                             0
z30                       5.73667
z31                             0
z32                             0
z33                       16.2272
z34                       4.34824
z35                             0
z36                             0
z37                             0
z38                       10.2437
z39                             0
z40                             0
z41                             0
z42                             0
z43                       8.54666
z44                       5.86861
z45                       11.4541
z46                             0
z47                             0
z48                       16.4404
z49                             0
z50                             0
z51                             0
z52                             0
z53                             0
z54                             0
z55                             0
z56                             0
z57                             0
z58                       3.05053
z59                       11.7986
z60                             0
z61                             0
z62                             0
z63                       7.92478
z64                             0
z65                       18.9326
z66                             0
z67                             0
z68                             0
z69                       6.99162
z70                       13.0408
z71                             0
z72                       2.99959
z73                       15.3264
z74                             0
z75                             0
z76                        10.884
z77                      0.786441
z78                       13.7463
z79                             0
z80                       4.60974
z81                             0
z82                             0
z83                             0
z84                             0
z85                       1.40641
z86                       2.00512
z87                             0
z88                             0
z89                             0
z90                         15.25
z91                       5.47448
z92                       8.72576
z93                             0
z94                             0
z95                             0
z96                             0
z97                       10.9878
z98                       6.24704
z99                             0
z100                      13.7616
z101                      15.2227
z102                            0
z103                            0
z104                            0
z105                            0
z106                      14.5496
z107                            0
z108                            0
z109                            0
z110                            0
z111                            0
z112                            0
z113                            0
z114                            0
z115                            0
z116                      6.74447
z117                            0
z118                      9.13885
z119                            0
z120                            0
z121                            0
z122                            0
z123                            0
z124                      13.9482
z125                            0
z126                            0
z127                            0
z128                      13.2402
z129                      5.79873
z130                            0
z131                            0
z132                            0
z133                      4.90228
z134                            0
z135                            0
z136                            0
z137                            0
z138                            0
z139                            0
z140                            0
z141                      5.96216
z142                            0
z143                            0
z144                            0
z145                            0
z146                            0
z147                      9.04789
z148                            0
z149                            0
z150                       1.5309
z151                            0
z152                      10.5947
z153                      1.68838
z154                            0
z155                            0
z156                            0
z157                            0
z158                      11.3381
z159                            0
z160                            0
z161                            0
z162                            0
z163                      7.07817
z164                            0
z165                            0
z166                      0.16608
z167                            0
z168                            0
z169                      14.8567
z170                            0
z171                      14.1038
z172                      3.61128
z173                      3.09233
z174                            0
z175                            0
z176                            0
z177                            0
z178                            0
z179                            0
z180                      5.41605
z181                            0
z182                            0
z183                            0
z184                      15.5723
z185                            0
z186                            0
z187                            0
z188                            0
z189                      14.6461
z190                            0
z191                            0
z192                            0
z193                      9.98327
z194                      1.56685
z195                            0
z196                      14.8506
z197                      1.85884
z198                            0
z199                      17.8594
z200                            0
z201                            0
z202                            0
z203                            0
z204                            0
z205                            0
z206                            0
z207                            0
z208                            0
z209                      15.4013
z210                            0
z211                            0
z212                            0
z213                      10.9066
z214                            0
z215                            0
z216                      3.94634
z217                            0
z218                            0
z219                      20.5214
z220                            0
z221                            0
z222                      3.09905
z223                            0
z224                      6.69212
z225                            0
z226                      8.44932
z227                            0
z228                            0
z229                            0
z230                       3.3636
z231                      10.9082
z232                            0
z233                            0
z234                            0
z235                            0
z236                            0
z237                            0
z238                      5.21089
z239                            0
z240                            0
z241                            0
z242                      12.1125
z243                            0
z244                            0
z245                            0
z246                            0
z247                            0
z248                       10.599
z249                            0
z250                            0
z251                            0
z252                            0
z253                            0
z254                            0
z255                            0
z256                      15.9711
z257                            0
z258                            0
z259                            0
z260                            0
z261                            0
z262                            0
z263                       18.055
z264                            0
z265                            0
z266                      5.43203
z267                      4.48601
z268                            0
z269                            0
z270                      10.9896
z271                       13.198
z272                            0
z273                            0
z274                            0
z275                      7.68448
z276                      12.2505
z277                            0
z278                       4.3905
z279                      5.62365
z280                      11.7808
z281                            0
z282                     0.089802
z283                            0
z284                            0
z285                            0
z286                      8.80887
z287                            0
z288                            0
z289                      4.36124
z290                      16.6198
z291                      14.9164
z292                      4.57496
z293                      16.9224
z294                      12.4289
z295                      16.2879
z296                            0
z297                            0
z298                            0
z299                      22.0311
z300                            0
z301                            0
z302                            0
z303                      2.44936
z304                      0.35371
z305                            0
z306                            0
z307                      12.0952
z308                      16.1297
z309                            0
z310                            0
z311                      11.8586
z312                      1.83611
z313                      7.19848
z314                      4.36764
z315                      6.14969
z316                            0
z317                            0
z318                            0
z319                      12.7175
z320                     0.301966
z321                            0
z322                            0
z323                      16.3492
z324                            0
z325                      13.8997
z326                            0
z327                            0
z328                            0
z329                       2.3604
z330                      12.6404
z331                            0
z332                            0
z333                            0
z334                            0
z335                      3.99993
z336                      13.9368
z337                      8.72891
z338                            0
z339                            0
z340                            0
z341                     0.622902
z342                            0
z343                      5.95634
z344                      11.6578
z345                      1.35236
z346                            0
z347                            0
z348                            0
z349                      18.0052
z350                            0
z351                            0
z352                            0
z353                            0
z354                            0
z355                            0
z356                      9.51336
z357                      7.51162
z358                            0
z359                            0
z360                            0
z361                            0
z362                            0
z363                            0
z364                      11.1154
z365                      16.8249
z366                            0
z367                      8.29593
z368                            0
z369                            0
z370                            0
z371                            0
z372                            0
z373                            0
z374                            0
z375                            0
z376                            0
z377                      3.01554
z378                            0
z379                      2.76468
z380                            0
z381                      14.1862
z382                      6.06969
z383                      1.33036
z384                            0
z385                            0
z386                      2.22464
z387                            0
z388                      6.50152
z389                            0
z390                      8.65619
z391                            0
z392                            0
z393                      1.16945
z394                            0
z395                            0
z396                            0
z397                            0
z398                            0
z399                            0
z400                            0
z401                            0
z402                            0
z403                            0
z404                      7.62459
z405                       1.6733
z406                      2.61331
z407                      7.94865
z408                            0
z409                            0
z410                      11.8113
z411                            0
z412                            0
z413                            0
z414                            0
z415                      17.3674
z416                            0
z417                            0
z418                            0
z419                      13.8711
z420                      10.4923
z421                            0
z422                            0
z423                       10.886
z424                            0
z425                            0
z426                       1.3457
z427                            0
z428                            0
z429                      8.49323
z430                            0
z431                            0
z432                            0
z433                      3.47561
z434                            0
z435                            0
z436                            0
z437                      12.7869
z438                            0
z439                            0
z440                      6.71475
z441                      9.12598
z442                      8.97972
z443                            0
z444                            0
z445                            0
z446                       2.3847
z447                            0
z448                      15.0901
z449                       5.7081
z450                            0
z451                            0
z452                            0
z453                            0
z454                            0
z455                      4.95929
z456                            0
z457                            0
z458                      12.9985
z459                            0
z460                      10.0484
z461                            0
z462                            0
z463                            0
z464                      4.57992
z465                            0
z466                            0
z467                            0
z468                      9.30727
z469                            0
z470                     0.281669
z471                            0
z472                      18.9388
z473                            0
z474                            0
z475                       10.674
z476                            0
z477                            0
z478                            0
z479                            0
z480                            0
z481                      7.27575
z482                      7.63498
z483                            0
z484                     0.332263
z485                      4.70042
z486                      6.45672
z487                      4.48449
z488                            0
z489                            0
z490                            0
z491                            0
z492                      3.44212
z493                            0
z494                            0
z495                            0
z496                            0
z497                     0.801599
z498                            0
z499                      8.32739
z500                            0
z501                      18.3207
z502                            0
z503                            0
z504                            0
z505                            0
z506                      7.14393
z507                            0
z508                      7.28388
z509                            0
z510                      9.25809
z511                            0
z512                            0
z513                            0
z514                      10.1577
z515                            0
z516                            0
z517                      10.6067
z518                      13.9508
z519                            0
z520                      11.3099
z521                            0
z522                            0
z523                            0
z524                      2.42069
z525                            0
z526                            0
z527                      4.53398
z528                      13.5535
z529                      6.91153
z530                            0
z531                            0
z532                            0
z533                     0.201118
z534                            0
z535                            0
z536                            0
z537                            0
z538                            0
z539                      6.75542
z540                            0
z541                       9.8932
z542                      14.0192
z543                            0
z544                            0
z545                            0
z546                      11.6648
z547                       7.0154
z548                      2.80418
z549                      7.47246
z550                      10.1686
z551                            0
z552                            0
z553                            0
z554                      11.4549
z555                            0
z556                            0
z557                            0
z558                            0
z559                            0
z560                      3.60953
z561                            0
z562                            0
z563                      13.6378
z564                            0
z565                      9.11831
z566                      5.97774
z567                      4.06231
z568                            0
z569                      2.53386
z570                      17.0386
z571                            0
z572                            0
z573                            0
z574                      2.55043
z575                      9.98219
z576                            0
z577                            0
z578                            0
z579                      12.4806
z580                      2.80095
z581                            0
z582                            0
z583                      2.92792
z584                            0
z585                            0
z586                            0
z587                      9.27339
z588                            0
z589                      3.12136
z590                            0
z591                            0
z592                            0
z593                            0
z594                      3.07951
z595                     0.859156
z596                      7.66741
z597                            0
z598                       2.8401
z599                            0
z600                            0
z601                            0
z602                            0
z603                            0
z604                            0
z605                            0
z606                            0
z607                      8.21937
z608                      14.9377
z609                            0
z610                            0
z611                            0
z612                     0.632416
z613                            0
z614                            0
z615                      17.3874
z616                      3.00518
z617                            0
z618                            0
z619                            0
z620                            0
z621                            0
z622                      15.3669
z623                            0
z624                      10.8087
z625                            0
z626                            0
z627                      7.68574
z628                            0
z629                            0
z630                            0
z631                            0
z632                            0
z633                            0
z634                            0
z635                            0
z636                            0
z637                      6.47836
z638                      1.82118
z639                            0
z640                      11.4868
z641                            0
z642                            0
z643                            0
z644                      1.03953
z645                      0.84869
z646                            0
z647                            0
z648                            0
z649                            0
z650                            0
z651                            0
z652                       15.421
z653                            0
z654                            0
z655                      18.7634
z656                            0
z657                            0
z658                            0
z659                            0
z660                      2.37445
z661                            0
z662                            0
z663                      14.6323
z664                            0
z665                      4.78681
z666                            0
z667                      14.8318
z668                            0
z669                            0
z670                            0
z671                            0
z672                            0
z673                            0
z674                            0
z675                            0
z676                            0
z677                   0.00195672
z678                            0
z679                            0
z680                            0
z681                            0
z682                            0
z683                            0
z684                            0
z685                            0
z686                            0
z687                            0
z688                            0
z689                     0.934629
z690                            0
z691                            0
z692                            0
z693                      5.54422
z694                      1.77802
z695                            0
z696                            0
z697                            0
z698                      8.15204
z699                            0
z700                            0
z701                      8.89343
z702                            0
z703                      18.5138
z704                            0
z705                            0
z706                            0
z707                      7.52936
z708                            0
z709                      3.66633
z710                            0
z711                            0
z712                            0
z713                            0
z714                            0
z715                      9.11436
z716                      10.6872
z717                            0
z718                            0
z719                            0
z720                            0
z721                      10.9529
z722                      8.32459
z723                      9.98524
z724                            0
z725                     0.111388
z726                      14.9436
z727                            0
z728                            0
z729                            0
z730                            0
z731                            0
z732                            0
z733                            0
z734                            0
z735                            0
z736                            0
z737                            0
z738                      16.8328
z739                            0
z740                            0
z741                            0
z742                            0
z743                            0
z744                            0
z745                     0.368055
z746                            0
z747                       9.7815
z748                      7.33214
z749                            0
z750                            0
z751                            0
z752                            0
z753                            0
z754                            0
z755                      13.2911
z756                            0
z757                        6.028
z758                      16.2439
z759                      7.59268
z760                            0
z761                            0
z762                      2.45722
z763                            0
z764                            0
z765                            0
z766                      3.18286
z767                            0
z768                            0
z769                            0
z770                            0
z771                            0
z772                            0
z773                            0
z774                            0
z775                            0
z776                            0
z777                            0
z778                            0
z779                            0
z780                            0
z781                      9.58644
z782                            0
z783                            0
z784                            0
z785                      4.20414
z786                      9.72011
z787                            0
z788                       1.5209
z789                      6.84318
z790                            0
z791                      7.43359
z792                            0
z793                            0
z794                      7.08551
z795                            0
z796                            0
z797                      18.5218
z798                     0.756826
z799                            0
z800                      12.8455
z801                      5.68127
z802                            0
z803                            0
z804                      13.9771
z805                            0
z806                            0
z807                      7.10084
z808                            0
z809                      1.87895
z810                            0
z811                            0
z812                            0
z813                            0
z814                            0
z815                            0
z816                            0
z817                            0
z818                      5.86568
z819                            0
z820                            0
z821                            0
z822                      6.63396
z823                      7.71077
z824                            0
z825                            0
z826                      13.2229
z827                            0
z828                      9.09834
z829                      7.17228
z830                            0
z831                            0
z832                            0
z833                            0
z834                            0
z835                            0
z836                      3.79757
z837                       7.9919
z838                      4.71179
z839                            0
z840                     0.643981
z841                            0
z842                      4.78061
z843                      12.3759
z844                            0
z845                            0
z846                            0
z847                            0
z848                            0
z849                      2.36905
z850                            0
z851                      7.19471
z852                      3.44871
z853                            0
z854                    0.0451607
z855                      14.7812
z856                            0
z857                            0
z858                            0
z859                      9.60549
z860                            0
z861                       13.235
z862                            0
z863                            0
z864                            0
z865                            0
z866                            0
z867                            0
z868                      11.6456
z869                      18.1732
z870                       9.5697
z871                            0
z872                      8.64147
z873                            0
z874                            0
z875                      8.04056
z876                            0
z877                            0
z878                            0
z879                            0
z880                            0
z881                      4.93555
z882                            0
z883                            0
z884                            0
z885                      7.27309
z886                      7.19173
z887                            0
z888                            0
z889                            0
z890                            0
z891                            0
z892                      5.75671
z893                            0
z894                      9.82637
z895                      2.21836
z896                            0
z897                            0
z898                            0
z899                            0
z900                      7.80871
z901                            0
z902                            0
z903                            0
z904                            0
z905                            0
z906                            0
z907                            0
z908                            0
z909                            0
z910                            0
z911                      3.11737
z912                      2.43291
z913                            0
z914                            0
z915                            0
z916                            0
z917                            0
z918                            0
z919                            0
z920                      11.5468
z921                            0
z922                      5.02219
z923                            0
z924                      4.45658
z925                            0
z926                            0
z927                            0
z928                      10.9837
z929                            0
z930                            0
z931                            0
z932                            0
z933                      14.0674
z934                            0
z935                            0
z936                            0
z937                            0
z938                            0
z939                            0
z940                            0
z941                            0
z942                      3.52029
z943                            0
z944                            0
z945                            0
z946                            0
z947                      9.21822
z948                      8.52247
z949                      1.73656
z950                            0
z951                            0
z952                            0
z953                            0
z954                      4.22207
z955                      13.6159
z956                            0
z957                      5.96996
z958                     0.973496
z959                      0.70151
z960                            0
z961                            0
z962                            0
z963                            0
z964                     0.267898
z965                            0
z966                            0
z967                            0
z968                      7.42029
z969                      7.80678
z970                            0
z971                            0
z972                     0.369771
z973                            0
z974                      15.5934
z975                            0
z976                            0
z977                      14.0642
z978                      10.2906
z979                       6.3051
z980                      9.41679
z981                            0
z982                      5.17717
z983                            0
z984                     0.013069
z985                            0
z986                      9.24094
z987                            0
z988                      16.4043
z989                      3.66499
z990                            0
z991                            0
z992                            0
z993                      3.19033
z994                      4.99687
z995                            0
z996                            0
z997                      3.64439
z998                      3.31878
z999                            0
x_Up0                           0
x_Up1                           0
x_Up2                     9.92024
x_Up3                     9.92024
x_Up4                     9.92024
x_Up5                     9.92024
x_Up6                           0
x_Up7                           0
x_Up8                           0
x_Up9                     44.7103
x_Up10                    34.8436
x_Up11                    22.7354
x_Up12                    20.1909
x_Up13                          0
x_Up14                          0
x_Up15                          0
x_Up16                          0
x_Up17                          0
x_Up18                          0
x_Down0                   80.1595
x_Down1                         0
x_Down2                         0
x_Down3                         0
x_Down4                         0
x_Down5                         0
x_Down6                         0
x_Down7                         0
x_Down8                         0
x_Down9                         0
x_Down10                        0
x_Down11                        0
x_Down12                        0
x_Down13                        0
x_Down14                        0
x_Down15                        0
x_Down16                        0
x_Down17                        0
x_Down18                        0
